
$molecule 
0 1
$end

$rem
JOBTYPE = SP
EXCHANGE = CAMB3LYP
CORRELATION = NONE
BASIS = 6-31G*
DFT_D = EMPIRICAL_GRIMME
UNRESTRICTED = FALSE
SYM_IGNORE = TRUE
SYMMETRY = FALSE
SCF_ALGORITHM = RCA_DIIS
MAX_SCF_CYCLES = 512
SCF_CONVERGENCE = 8
THRESH = 14
MEM_TOTAL = 24000
MEM_STATIC = 6000
$end

$empirical_dispersion
s6 1.00
$end

@@@

$molecule
0 5
read
$end

$rem
JOBTYPE = SP
EXCHANGE = CAMB3LYP
CORRELATION = NONE
BASIS = 6-31G*
DFT_D = EMPIRICAL_GRIMME
UNRESTRICTED = TRUE
SCF_ALGORITHM = RCA_DIIS
MAX_SCF_CYCLES = 512
SCF_CONVERGENCE = 8
THRESH = 14
SCF_GUESS = READ
MEM_TOTAL = 24000
MEM_STATIC = 6000
$end

$empirical_dispersion
s6 1.00
$end
